Problem:    comizi
Rows:       28
Columns:    51 (50 integer, 50 binary)
Non-zeros:  224
Status:     INTEGER OPTIMAL
Objective:  spettatoriTotali = 650 (MAXimum)

   No.   Row name        Activity     Lower bound   Upper bound
------ ------------    ------------- ------------- -------------
     1 VincoloComizio
                                   1                           1 
     2 VincoloSpostamento
                                4.92                          16 
     3 VincoloDurataViaggi[A]
                                 292            -0               
     4 VincoloDurataViaggi[B]
                                 292            -0               
     5 VincoloDurataViaggi[C]
                                 292            -0               
     6 VincoloDurataViaggi[D]
                                 292            -0               
     7 VincoloDurataViaggi[E]
                                 292            -0               
     8 VincoloDurataViaggi[F]
                                 292            -0               
     9 VincoloDurataViaggi[G]
                                 292            -0               
    10 VincoloDurataViaggi[H]
                                 292            -0               
    11 VincoloDurataViaggi[I]
                                 292            -0               
    12 VincoloDurataViaggi[J]
                                 292            -0               
    13 VincoloDurataViaggi[K]
                                 292            -0               
    14 VincoloDurataViaggi[L]
                                 292            -0               
    15 VincoloDurataViaggi[M]
                                 292            -0               
    16 VincoloDurataViaggi[N]
                                 292            -0               
    17 VincoloDurataViaggi[O]
                                 292            -0               
    18 VincoloDurataViaggi[P]
                                 292            -0               
    19 VincoloDurataViaggi[Q]
                                 292            -0               
    20 VincoloDurataViaggi[R]
                                 292            -0               
    21 VincoloDurataViaggi[S]
                                 292            -0               
    22 VincoloDurataViaggi[T]
                                 292            -0               
    23 VincoloDurataViaggi[U]
                                 292            -0               
    24 VincoloDurataViaggi[V]
                                 292            -0               
    25 VincoloDurataViaggi[W]
                                 292            -0               
    26 VincoloDurataViaggi[X]
                                   0            -0               
    27 VincoloDurataViaggi[Y]
                                 292            -0               
    28 spettatoriTotali
                                 650                             

   No. Column name       Activity     Lower bound   Upper bound
------ ------------    ------------- ------------- -------------
     1 x[A,1]       *              0             0             1 
     2 x[A,2]       *              0             0             1 
     3 x[B,1]       *              0             0             1 
     4 x[B,2]       *              0             0             1 
     5 x[C,1]       *              0             0             1 
     6 x[C,2]       *              0             0             1 
     7 x[D,1]       *              0             0             1 
     8 x[D,2]       *              0             0             1 
     9 x[E,1]       *              0             0             1 
    10 x[E,2]       *              0             0             1 
    11 x[F,1]       *              0             0             1 
    12 x[F,2]       *              0             0             1 
    13 x[G,1]       *              0             0             1 
    14 x[G,2]       *              0             0             1 
    15 x[H,1]       *              0             0             1 
    16 x[H,2]       *              0             0             1 
    17 x[I,1]       *              0             0             1 
    18 x[I,2]       *              0             0             1 
    19 x[J,1]       *              0             0             1 
    20 x[J,2]       *              0             0             1 
    21 x[K,1]       *              0             0             1 
    22 x[K,2]       *              0             0             1 
    23 x[L,1]       *              0             0             1 
    24 x[L,2]       *              0             0             1 
    25 x[M,1]       *              0             0             1 
    26 x[M,2]       *              0             0             1 
    27 x[N,1]       *              0             0             1 
    28 x[N,2]       *              0             0             1 
    29 x[O,1]       *              0             0             1 
    30 x[O,2]       *              0             0             1 
    31 x[P,1]       *              0             0             1 
    32 x[P,2]       *              0             0             1 
    33 x[Q,1]       *              0             0             1 
    34 x[Q,2]       *              0             0             1 
    35 x[R,1]       *              0             0             1 
    36 x[R,2]       *              0             0             1 
    37 x[S,1]       *              0             0             1 
    38 x[S,2]       *              0             0             1 
    39 x[T,1]       *              0             0             1 
    40 x[T,2]       *              0             0             1 
    41 x[U,1]       *              0             0             1 
    42 x[U,2]       *              0             0             1 
    43 x[V,1]       *              0             0             1 
    44 x[V,2]       *              0             0             1 
    45 x[W,1]       *              0             0             1 
    46 x[W,2]       *              0             0             1 
    47 x[X,1]       *              0             0             1 
    48 x[X,2]       *              1             0             1 
    49 x[Y,1]       *              0             0             1 
    50 x[Y,2]       *              0             0             1 
    51 spostamento              2.92             0               

Integer feasibility conditions:

KKT.PE: max.abs.err = 0.00e+00 on row 0
        max.rel.err = 0.00e+00 on row 0
        High quality

KKT.PB: max.abs.err = 0.00e+00 on row 0
        max.rel.err = 0.00e+00 on row 0
        High quality

End of output
